7038107595674979976507,14,1,2,013,6,1,2,03,12,1,2,05,5,1,2,08,7,1,2,012,7,1,2,07,14,1,2,011,2,1,2,02,15,1,2,014,6,1,2,04,1,1,2,04,4,1,2,08,3,1,2,011,14,1,2,09,10,1,2,05,13,1,2,01,12,1,2,012,3,1,2,015,5,1,2,04,12,1,2,05,12,1,2,03,4,1,2,03,7,1,2,09,12,1,2,013,15,1,2,07,14,1,2,012,11,1,2,04,3,1,2,07,14,1,2,014,3,1,2,03,5,1,2,09,2,1,2,011,2,1,2,015,2,1,2,06,7,1,2,01,1,1,2,010,5,1,2,07,7,1,2,03,12,1,2,012,13,1,2,010,12,1,2,06,11,1,2,09,10,1,2,014,14,1,2,02,8,1,2,015,8,1,2,09,14,1,2,015,9,1,2,06,13,1,2,04,5,1,2,0